NAME: bip_30_2
TYPE: TSP
COMMENT: bip_30_2
DIMENSION: 30
EDGE_WEIGHT_TYPE: EUC_2D
NODE_COORD_SECTION
1 50 33
2 71 92
3 27 98
4 42 65
5 17 10
6 52 75
7 9 61
8 35 41
9 39 91
10 95 51
11 56 90
12 1 69
13 41 12
14 71 50
15 87 82
16 493 421
17 435 473
18 464 496
19 400 488
20 495 426
21 458 446
22 438 443
23 454 410
24 428 490
25 427 485
26 404 475
27 470 411
28 478 474
29 405 462
30 400 411
